c Random CNF formula
p cnf 204 2099
1 2 3 4 5 6 7 8 9 10 11 12 0
-1 -2 0
-1 -3 0
-1 -4 0
-1 -5 0
-1 -6 0
-1 -7 0
-1 -8 0
-1 -9 0
-1 -10 0
-1 -11 0
-1 -12 0
-2 -3 0
-2 -4 0
-2 -5 0
-2 -6 0
-2 -7 0
-2 -8 0
-2 -9 0
-2 -10 0
-2 -11 0
-2 -12 0
-3 -4 0
-3 -5 0
-3 -6 0
-3 -7 0
-3 -8 0
-3 -9 0
-3 -10 0
-3 -11 0
-3 -12 0
-4 -5 0
-4 -6 0
-4 -7 0
-4 -8 0
-4 -9 0
-4 -10 0
-4 -11 0
-4 -12 0
-5 -6 0
-5 -7 0
-5 -8 0
-5 -9 0
-5 -10 0
-5 -11 0
-5 -12 0
-6 -7 0
-6 -8 0
-6 -9 0
-6 -10 0
-6 -11 0
-6 -12 0
-7 -8 0
-7 -9 0
-7 -10 0
-7 -11 0
-7 -12 0
-8 -9 0
-8 -10 0
-8 -11 0
-8 -12 0
-9 -10 0
-9 -11 0
-9 -12 0
-10 -11 0
-10 -12 0
-11 -12 0
13 14 15 16 17 18 19 20 21 22 23 24 0
-13 -14 0
-13 -15 0
-13 -16 0
-13 -17 0
-13 -18 0
-13 -19 0
-13 -20 0
-13 -21 0
-13 -22 0
-13 -23 0
-13 -24 0
-14 -15 0
-14 -16 0
-14 -17 0
-14 -18 0
-14 -19 0
-14 -20 0
-14 -21 0
-14 -22 0
-14 -23 0
-14 -24 0
-15 -16 0
-15 -17 0
-15 -18 0
-15 -19 0
-15 -20 0
-15 -21 0
-15 -22 0
-15 -23 0
-15 -24 0
-16 -17 0
-16 -18 0
-16 -19 0
-16 -20 0
-16 -21 0
-16 -22 0
-16 -23 0
-16 -24 0
-17 -18 0
-17 -19 0
-17 -20 0
-17 -21 0
-17 -22 0
-17 -23 0
-17 -24 0
-18 -19 0
-18 -20 0
-18 -21 0
-18 -22 0
-18 -23 0
-18 -24 0
-19 -20 0
-19 -21 0
-19 -22 0
-19 -23 0
-19 -24 0
-20 -21 0
-20 -22 0
-20 -23 0
-20 -24 0
-21 -22 0
-21 -23 0
-21 -24 0
-22 -23 0
-22 -24 0
-23 -24 0
25 26 27 28 29 30 31 32 33 34 35 36 0
-25 -26 0
-25 -27 0
-25 -28 0
-25 -29 0
-25 -30 0
-25 -31 0
-25 -32 0
-25 -33 0
-25 -34 0
-25 -35 0
-25 -36 0
-26 -27 0
-26 -28 0
-26 -29 0
-26 -30 0
-26 -31 0
-26 -32 0
-26 -33 0
-26 -34 0
-26 -35 0
-26 -36 0
-27 -28 0
-27 -29 0
-27 -30 0
-27 -31 0
-27 -32 0
-27 -33 0
-27 -34 0
-27 -35 0
-27 -36 0
-28 -29 0
-28 -30 0
-28 -31 0
-28 -32 0
-28 -33 0
-28 -34 0
-28 -35 0
-28 -36 0
-29 -30 0
-29 -31 0
-29 -32 0
-29 -33 0
-29 -34 0
-29 -35 0
-29 -36 0
-30 -31 0
-30 -32 0
-30 -33 0
-30 -34 0
-30 -35 0
-30 -36 0
-31 -32 0
-31 -33 0
-31 -34 0
-31 -35 0
-31 -36 0
-32 -33 0
-32 -34 0
-32 -35 0
-32 -36 0
-33 -34 0
-33 -35 0
-33 -36 0
-34 -35 0
-34 -36 0
-35 -36 0
37 38 39 40 41 42 43 44 45 46 47 48 0
-37 -38 0
-37 -39 0
-37 -40 0
-37 -41 0
-37 -42 0
-37 -43 0
-37 -44 0
-37 -45 0
-37 -46 0
-37 -47 0
-37 -48 0
-38 -39 0
-38 -40 0
-38 -41 0
-38 -42 0
-38 -43 0
-38 -44 0
-38 -45 0
-38 -46 0
-38 -47 0
-38 -48 0
-39 -40 0
-39 -41 0
-39 -42 0
-39 -43 0
-39 -44 0
-39 -45 0
-39 -46 0
-39 -47 0
-39 -48 0
-40 -41 0
-40 -42 0
-40 -43 0
-40 -44 0
-40 -45 0
-40 -46 0
-40 -47 0
-40 -48 0
-41 -42 0
-41 -43 0
-41 -44 0
-41 -45 0
-41 -46 0
-41 -47 0
-41 -48 0
-42 -43 0
-42 -44 0
-42 -45 0
-42 -46 0
-42 -47 0
-42 -48 0
-43 -44 0
-43 -45 0
-43 -46 0
-43 -47 0
-43 -48 0
-44 -45 0
-44 -46 0
-44 -47 0
-44 -48 0
-45 -46 0
-45 -47 0
-45 -48 0
-46 -47 0
-46 -48 0
-47 -48 0
49 50 51 52 53 54 55 56 57 58 59 60 0
-49 -50 0
-49 -51 0
-49 -52 0
-49 -53 0
-49 -54 0
-49 -55 0
-49 -56 0
-49 -57 0
-49 -58 0
-49 -59 0
-49 -60 0
-50 -51 0
-50 -52 0
-50 -53 0
-50 -54 0
-50 -55 0
-50 -56 0
-50 -57 0
-50 -58 0
-50 -59 0
-50 -60 0
-51 -52 0
-51 -53 0
-51 -54 0
-51 -55 0
-51 -56 0
-51 -57 0
-51 -58 0
-51 -59 0
-51 -60 0
-52 -53 0
-52 -54 0
-52 -55 0
-52 -56 0
-52 -57 0
-52 -58 0
-52 -59 0
-52 -60 0
-53 -54 0
-53 -55 0
-53 -56 0
-53 -57 0
-53 -58 0
-53 -59 0
-53 -60 0
-54 -55 0
-54 -56 0
-54 -57 0
-54 -58 0
-54 -59 0
-54 -60 0
-55 -56 0
-55 -57 0
-55 -58 0
-55 -59 0
-55 -60 0
-56 -57 0
-56 -58 0
-56 -59 0
-56 -60 0
-57 -58 0
-57 -59 0
-57 -60 0
-58 -59 0
-58 -60 0
-59 -60 0
61 62 63 64 65 66 67 68 69 70 71 72 0
-61 -62 0
-61 -63 0
-61 -64 0
-61 -65 0
-61 -66 0
-61 -67 0
-61 -68 0
-61 -69 0
-61 -70 0
-61 -71 0
-61 -72 0
-62 -63 0
-62 -64 0
-62 -65 0
-62 -66 0
-62 -67 0
-62 -68 0
-62 -69 0
-62 -70 0
-62 -71 0
-62 -72 0
-63 -64 0
-63 -65 0
-63 -66 0
-63 -67 0
-63 -68 0
-63 -69 0
-63 -70 0
-63 -71 0
-63 -72 0
-64 -65 0
-64 -66 0
-64 -67 0
-64 -68 0
-64 -69 0
-64 -70 0
-64 -71 0
-64 -72 0
-65 -66 0
-65 -67 0
-65 -68 0
-65 -69 0
-65 -70 0
-65 -71 0
-65 -72 0
-66 -67 0
-66 -68 0
-66 -69 0
-66 -70 0
-66 -71 0
-66 -72 0
-67 -68 0
-67 -69 0
-67 -70 0
-67 -71 0
-67 -72 0
-68 -69 0
-68 -70 0
-68 -71 0
-68 -72 0
-69 -70 0
-69 -71 0
-69 -72 0
-70 -71 0
-70 -72 0
-71 -72 0
73 74 75 76 77 78 79 80 81 82 83 84 0
-73 -74 0
-73 -75 0
-73 -76 0
-73 -77 0
-73 -78 0
-73 -79 0
-73 -80 0
-73 -81 0
-73 -82 0
-73 -83 0
-73 -84 0
-74 -75 0
-74 -76 0
-74 -77 0
-74 -78 0
-74 -79 0
-74 -80 0
-74 -81 0
-74 -82 0
-74 -83 0
-74 -84 0
-75 -76 0
-75 -77 0
-75 -78 0
-75 -79 0
-75 -80 0
-75 -81 0
-75 -82 0
-75 -83 0
-75 -84 0
-76 -77 0
-76 -78 0
-76 -79 0
-76 -80 0
-76 -81 0
-76 -82 0
-76 -83 0
-76 -84 0
-77 -78 0
-77 -79 0
-77 -80 0
-77 -81 0
-77 -82 0
-77 -83 0
-77 -84 0
-78 -79 0
-78 -80 0
-78 -81 0
-78 -82 0
-78 -83 0
-78 -84 0
-79 -80 0
-79 -81 0
-79 -82 0
-79 -83 0
-79 -84 0
-80 -81 0
-80 -82 0
-80 -83 0
-80 -84 0
-81 -82 0
-81 -83 0
-81 -84 0
-82 -83 0
-82 -84 0
-83 -84 0
85 86 87 88 89 90 91 92 93 94 95 96 0
-85 -86 0
-85 -87 0
-85 -88 0
-85 -89 0
-85 -90 0
-85 -91 0
-85 -92 0
-85 -93 0
-85 -94 0
-85 -95 0
-85 -96 0
-86 -87 0
-86 -88 0
-86 -89 0
-86 -90 0
-86 -91 0
-86 -92 0
-86 -93 0
-86 -94 0
-86 -95 0
-86 -96 0
-87 -88 0
-87 -89 0
-87 -90 0
-87 -91 0
-87 -92 0
-87 -93 0
-87 -94 0
-87 -95 0
-87 -96 0
-88 -89 0
-88 -90 0
-88 -91 0
-88 -92 0
-88 -93 0
-88 -94 0
-88 -95 0
-88 -96 0
-89 -90 0
-89 -91 0
-89 -92 0
-89 -93 0
-89 -94 0
-89 -95 0
-89 -96 0
-90 -91 0
-90 -92 0
-90 -93 0
-90 -94 0
-90 -95 0
-90 -96 0
-91 -92 0
-91 -93 0
-91 -94 0
-91 -95 0
-91 -96 0
-92 -93 0
-92 -94 0
-92 -95 0
-92 -96 0
-93 -94 0
-93 -95 0
-93 -96 0
-94 -95 0
-94 -96 0
-95 -96 0
97 98 99 100 101 102 103 104 105 106 107 108 0
-97 -98 0
-97 -99 0
-97 -100 0
-97 -101 0
-97 -102 0
-97 -103 0
-97 -104 0
-97 -105 0
-97 -106 0
-97 -107 0
-97 -108 0
-98 -99 0
-98 -100 0
-98 -101 0
-98 -102 0
-98 -103 0
-98 -104 0
-98 -105 0
-98 -106 0
-98 -107 0
-98 -108 0
-99 -100 0
-99 -101 0
-99 -102 0
-99 -103 0
-99 -104 0
-99 -105 0
-99 -106 0
-99 -107 0
-99 -108 0
-100 -101 0
-100 -102 0
-100 -103 0
-100 -104 0
-100 -105 0
-100 -106 0
-100 -107 0
-100 -108 0
-101 -102 0
-101 -103 0
-101 -104 0
-101 -105 0
-101 -106 0
-101 -107 0
-101 -108 0
-102 -103 0
-102 -104 0
-102 -105 0
-102 -106 0
-102 -107 0
-102 -108 0
-103 -104 0
-103 -105 0
-103 -106 0
-103 -107 0
-103 -108 0
-104 -105 0
-104 -106 0
-104 -107 0
-104 -108 0
-105 -106 0
-105 -107 0
-105 -108 0
-106 -107 0
-106 -108 0
-107 -108 0
109 110 111 112 113 114 115 116 117 118 119 120 0
-109 -110 0
-109 -111 0
-109 -112 0
-109 -113 0
-109 -114 0
-109 -115 0
-109 -116 0
-109 -117 0
-109 -118 0
-109 -119 0
-109 -120 0
-110 -111 0
-110 -112 0
-110 -113 0
-110 -114 0
-110 -115 0
-110 -116 0
-110 -117 0
-110 -118 0
-110 -119 0
-110 -120 0
-111 -112 0
-111 -113 0
-111 -114 0
-111 -115 0
-111 -116 0
-111 -117 0
-111 -118 0
-111 -119 0
-111 -120 0
-112 -113 0
-112 -114 0
-112 -115 0
-112 -116 0
-112 -117 0
-112 -118 0
-112 -119 0
-112 -120 0
-113 -114 0
-113 -115 0
-113 -116 0
-113 -117 0
-113 -118 0
-113 -119 0
-113 -120 0
-114 -115 0
-114 -116 0
-114 -117 0
-114 -118 0
-114 -119 0
-114 -120 0
-115 -116 0
-115 -117 0
-115 -118 0
-115 -119 0
-115 -120 0
-116 -117 0
-116 -118 0
-116 -119 0
-116 -120 0
-117 -118 0
-117 -119 0
-117 -120 0
-118 -119 0
-118 -120 0
-119 -120 0
121 122 123 124 125 126 127 128 129 130 131 132 0
-121 -122 0
-121 -123 0
-121 -124 0
-121 -125 0
-121 -126 0
-121 -127 0
-121 -128 0
-121 -129 0
-121 -130 0
-121 -131 0
-121 -132 0
-122 -123 0
-122 -124 0
-122 -125 0
-122 -126 0
-122 -127 0
-122 -128 0
-122 -129 0
-122 -130 0
-122 -131 0
-122 -132 0
-123 -124 0
-123 -125 0
-123 -126 0
-123 -127 0
-123 -128 0
-123 -129 0
-123 -130 0
-123 -131 0
-123 -132 0
-124 -125 0
-124 -126 0
-124 -127 0
-124 -128 0
-124 -129 0
-124 -130 0
-124 -131 0
-124 -132 0
-125 -126 0
-125 -127 0
-125 -128 0
-125 -129 0
-125 -130 0
-125 -131 0
-125 -132 0
-126 -127 0
-126 -128 0
-126 -129 0
-126 -130 0
-126 -131 0
-126 -132 0
-127 -128 0
-127 -129 0
-127 -130 0
-127 -131 0
-127 -132 0
-128 -129 0
-128 -130 0
-128 -131 0
-128 -132 0
-129 -130 0
-129 -131 0
-129 -132 0
-130 -131 0
-130 -132 0
-131 -132 0
133 134 135 136 137 138 139 140 141 142 143 144 0
-133 -134 0
-133 -135 0
-133 -136 0
-133 -137 0
-133 -138 0
-133 -139 0
-133 -140 0
-133 -141 0
-133 -142 0
-133 -143 0
-133 -144 0
-134 -135 0
-134 -136 0
-134 -137 0
-134 -138 0
-134 -139 0
-134 -140 0
-134 -141 0
-134 -142 0
-134 -143 0
-134 -144 0
-135 -136 0
-135 -137 0
-135 -138 0
-135 -139 0
-135 -140 0
-135 -141 0
-135 -142 0
-135 -143 0
-135 -144 0
-136 -137 0
-136 -138 0
-136 -139 0
-136 -140 0
-136 -141 0
-136 -142 0
-136 -143 0
-136 -144 0
-137 -138 0
-137 -139 0
-137 -140 0
-137 -141 0
-137 -142 0
-137 -143 0
-137 -144 0
-138 -139 0
-138 -140 0
-138 -141 0
-138 -142 0
-138 -143 0
-138 -144 0
-139 -140 0
-139 -141 0
-139 -142 0
-139 -143 0
-139 -144 0
-140 -141 0
-140 -142 0
-140 -143 0
-140 -144 0
-141 -142 0
-141 -143 0
-141 -144 0
-142 -143 0
-142 -144 0
-143 -144 0
145 146 147 148 149 150 151 152 153 154 155 156 0
-145 -146 0
-145 -147 0
-145 -148 0
-145 -149 0
-145 -150 0
-145 -151 0
-145 -152 0
-145 -153 0
-145 -154 0
-145 -155 0
-145 -156 0
-146 -147 0
-146 -148 0
-146 -149 0
-146 -150 0
-146 -151 0
-146 -152 0
-146 -153 0
-146 -154 0
-146 -155 0
-146 -156 0
-147 -148 0
-147 -149 0
-147 -150 0
-147 -151 0
-147 -152 0
-147 -153 0
-147 -154 0
-147 -155 0
-147 -156 0
-148 -149 0
-148 -150 0
-148 -151 0
-148 -152 0
-148 -153 0
-148 -154 0
-148 -155 0
-148 -156 0
-149 -150 0
-149 -151 0
-149 -152 0
-149 -153 0
-149 -154 0
-149 -155 0
-149 -156 0
-150 -151 0
-150 -152 0
-150 -153 0
-150 -154 0
-150 -155 0
-150 -156 0
-151 -152 0
-151 -153 0
-151 -154 0
-151 -155 0
-151 -156 0
-152 -153 0
-152 -154 0
-152 -155 0
-152 -156 0
-153 -154 0
-153 -155 0
-153 -156 0
-154 -155 0
-154 -156 0
-155 -156 0
157 158 159 160 161 162 163 164 165 166 167 168 0
-157 -158 0
-157 -159 0
-157 -160 0
-157 -161 0
-157 -162 0
-157 -163 0
-157 -164 0
-157 -165 0
-157 -166 0
-157 -167 0
-157 -168 0
-158 -159 0
-158 -160 0
-158 -161 0
-158 -162 0
-158 -163 0
-158 -164 0
-158 -165 0
-158 -166 0
-158 -167 0
-158 -168 0
-159 -160 0
-159 -161 0
-159 -162 0
-159 -163 0
-159 -164 0
-159 -165 0
-159 -166 0
-159 -167 0
-159 -168 0
-160 -161 0
-160 -162 0
-160 -163 0
-160 -164 0
-160 -165 0
-160 -166 0
-160 -167 0
-160 -168 0
-161 -162 0
-161 -163 0
-161 -164 0
-161 -165 0
-161 -166 0
-161 -167 0
-161 -168 0
-162 -163 0
-162 -164 0
-162 -165 0
-162 -166 0
-162 -167 0
-162 -168 0
-163 -164 0
-163 -165 0
-163 -166 0
-163 -167 0
-163 -168 0
-164 -165 0
-164 -166 0
-164 -167 0
-164 -168 0
-165 -166 0
-165 -167 0
-165 -168 0
-166 -167 0
-166 -168 0
-167 -168 0
169 170 171 172 173 174 175 176 177 178 179 180 0
-169 -170 0
-169 -171 0
-169 -172 0
-169 -173 0
-169 -174 0
-169 -175 0
-169 -176 0
-169 -177 0
-169 -178 0
-169 -179 0
-169 -180 0
-170 -171 0
-170 -172 0
-170 -173 0
-170 -174 0
-170 -175 0
-170 -176 0
-170 -177 0
-170 -178 0
-170 -179 0
-170 -180 0
-171 -172 0
-171 -173 0
-171 -174 0
-171 -175 0
-171 -176 0
-171 -177 0
-171 -178 0
-171 -179 0
-171 -180 0
-172 -173 0
-172 -174 0
-172 -175 0
-172 -176 0
-172 -177 0
-172 -178 0
-172 -179 0
-172 -180 0
-173 -174 0
-173 -175 0
-173 -176 0
-173 -177 0
-173 -178 0
-173 -179 0
-173 -180 0
-174 -175 0
-174 -176 0
-174 -177 0
-174 -178 0
-174 -179 0
-174 -180 0
-175 -176 0
-175 -177 0
-175 -178 0
-175 -179 0
-175 -180 0
-176 -177 0
-176 -178 0
-176 -179 0
-176 -180 0
-177 -178 0
-177 -179 0
-177 -180 0
-178 -179 0
-178 -180 0
-179 -180 0
181 182 183 184 185 186 187 188 189 190 191 192 0
-181 -182 0
-181 -183 0
-181 -184 0
-181 -185 0
-181 -186 0
-181 -187 0
-181 -188 0
-181 -189 0
-181 -190 0
-181 -191 0
-181 -192 0
-182 -183 0
-182 -184 0
-182 -185 0
-182 -186 0
-182 -187 0
-182 -188 0
-182 -189 0
-182 -190 0
-182 -191 0
-182 -192 0
-183 -184 0
-183 -185 0
-183 -186 0
-183 -187 0
-183 -188 0
-183 -189 0
-183 -190 0
-183 -191 0
-183 -192 0
-184 -185 0
-184 -186 0
-184 -187 0
-184 -188 0
-184 -189 0
-184 -190 0
-184 -191 0
-184 -192 0
-185 -186 0
-185 -187 0
-185 -188 0
-185 -189 0
-185 -190 0
-185 -191 0
-185 -192 0
-186 -187 0
-186 -188 0
-186 -189 0
-186 -190 0
-186 -191 0
-186 -192 0
-187 -188 0
-187 -189 0
-187 -190 0
-187 -191 0
-187 -192 0
-188 -189 0
-188 -190 0
-188 -191 0
-188 -192 0
-189 -190 0
-189 -191 0
-189 -192 0
-190 -191 0
-190 -192 0
-191 -192 0
193 194 195 196 197 198 199 200 201 202 203 204 0
-193 -194 0
-193 -195 0
-193 -196 0
-193 -197 0
-193 -198 0
-193 -199 0
-193 -200 0
-193 -201 0
-193 -202 0
-193 -203 0
-193 -204 0
-194 -195 0
-194 -196 0
-194 -197 0
-194 -198 0
-194 -199 0
-194 -200 0
-194 -201 0
-194 -202 0
-194 -203 0
-194 -204 0
-195 -196 0
-195 -197 0
-195 -198 0
-195 -199 0
-195 -200 0
-195 -201 0
-195 -202 0
-195 -203 0
-195 -204 0
-196 -197 0
-196 -198 0
-196 -199 0
-196 -200 0
-196 -201 0
-196 -202 0
-196 -203 0
-196 -204 0
-197 -198 0
-197 -199 0
-197 -200 0
-197 -201 0
-197 -202 0
-197 -203 0
-197 -204 0
-198 -199 0
-198 -200 0
-198 -201 0
-198 -202 0
-198 -203 0
-198 -204 0
-199 -200 0
-199 -201 0
-199 -202 0
-199 -203 0
-199 -204 0
-200 -201 0
-200 -202 0
-200 -203 0
-200 -204 0
-201 -202 0
-201 -203 0
-201 -204 0
-202 -203 0
-202 -204 0
-203 -204 0
-1 -13 0
-2 -14 0
-3 -15 0
-4 -16 0
-5 -17 0
-6 -18 0
-7 -19 0
-8 -20 0
-9 -21 0
-10 -22 0
-11 -23 0
-12 -24 0
-1 -61 0
-2 -62 0
-3 -63 0
-4 -64 0
-5 -65 0
-6 -66 0
-7 -67 0
-8 -68 0
-9 -69 0
-10 -70 0
-11 -71 0
-12 -72 0
-1 -73 0
-2 -74 0
-3 -75 0
-4 -76 0
-5 -77 0
-6 -78 0
-7 -79 0
-8 -80 0
-9 -81 0
-10 -82 0
-11 -83 0
-12 -84 0
-1 -121 0
-2 -122 0
-3 -123 0
-4 -124 0
-5 -125 0
-6 -126 0
-7 -127 0
-8 -128 0
-9 -129 0
-10 -130 0
-11 -131 0
-12 -132 0
-1 -133 0
-2 -134 0
-3 -135 0
-4 -136 0
-5 -137 0
-6 -138 0
-7 -139 0
-8 -140 0
-9 -141 0
-10 -142 0
-11 -143 0
-12 -144 0
-1 -157 0
-2 -158 0
-3 -159 0
-4 -160 0
-5 -161 0
-6 -162 0
-7 -163 0
-8 -164 0
-9 -165 0
-10 -166 0
-11 -167 0
-12 -168 0
-1 -169 0
-2 -170 0
-3 -171 0
-4 -172 0
-5 -173 0
-6 -174 0
-7 -175 0
-8 -176 0
-9 -177 0
-10 -178 0
-11 -179 0
-12 -180 0
-1 -193 0
-2 -194 0
-3 -195 0
-4 -196 0
-5 -197 0
-6 -198 0
-7 -199 0
-8 -200 0
-9 -201 0
-10 -202 0
-11 -203 0
-12 -204 0
-13 -25 0
-14 -26 0
-15 -27 0
-16 -28 0
-17 -29 0
-18 -30 0
-19 -31 0
-20 -32 0
-21 -33 0
-22 -34 0
-23 -35 0
-24 -36 0
-13 -37 0
-14 -38 0
-15 -39 0
-16 -40 0
-17 -41 0
-18 -42 0
-19 -43 0
-20 -44 0
-21 -45 0
-22 -46 0
-23 -47 0
-24 -48 0
-13 -49 0
-14 -50 0
-15 -51 0
-16 -52 0
-17 -53 0
-18 -54 0
-19 -55 0
-20 -56 0
-21 -57 0
-22 -58 0
-23 -59 0
-24 -60 0
-13 -61 0
-14 -62 0
-15 -63 0
-16 -64 0
-17 -65 0
-18 -66 0
-19 -67 0
-20 -68 0
-21 -69 0
-22 -70 0
-23 -71 0
-24 -72 0
-13 -73 0
-14 -74 0
-15 -75 0
-16 -76 0
-17 -77 0
-18 -78 0
-19 -79 0
-20 -80 0
-21 -81 0
-22 -82 0
-23 -83 0
-24 -84 0
-13 -85 0
-14 -86 0
-15 -87 0
-16 -88 0
-17 -89 0
-18 -90 0
-19 -91 0
-20 -92 0
-21 -93 0
-22 -94 0
-23 -95 0
-24 -96 0
-13 -109 0
-14 -110 0
-15 -111 0
-16 -112 0
-17 -113 0
-18 -114 0
-19 -115 0
-20 -116 0
-21 -117 0
-22 -118 0
-23 -119 0
-24 -120 0
-13 -133 0
-14 -134 0
-15 -135 0
-16 -136 0
-17 -137 0
-18 -138 0
-19 -139 0
-20 -140 0
-21 -141 0
-22 -142 0
-23 -143 0
-24 -144 0
-13 -145 0
-14 -146 0
-15 -147 0
-16 -148 0
-17 -149 0
-18 -150 0
-19 -151 0
-20 -152 0
-21 -153 0
-22 -154 0
-23 -155 0
-24 -156 0
-13 -193 0
-14 -194 0
-15 -195 0
-16 -196 0
-17 -197 0
-18 -198 0
-19 -199 0
-20 -200 0
-21 -201 0
-22 -202 0
-23 -203 0
-24 -204 0
-25 -49 0
-26 -50 0
-27 -51 0
-28 -52 0
-29 -53 0
-30 -54 0
-31 -55 0
-32 -56 0
-33 -57 0
-34 -58 0
-35 -59 0
-36 -60 0
-25 -73 0
-26 -74 0
-27 -75 0
-28 -76 0
-29 -77 0
-30 -78 0
-31 -79 0
-32 -80 0
-33 -81 0
-34 -82 0
-35 -83 0
-36 -84 0
-25 -121 0
-26 -122 0
-27 -123 0
-28 -124 0
-29 -125 0
-30 -126 0
-31 -127 0
-32 -128 0
-33 -129 0
-34 -130 0
-35 -131 0
-36 -132 0
-25 -145 0
-26 -146 0
-27 -147 0
-28 -148 0
-29 -149 0
-30 -150 0
-31 -151 0
-32 -152 0
-33 -153 0
-34 -154 0
-35 -155 0
-36 -156 0
-25 -157 0
-26 -158 0
-27 -159 0
-28 -160 0
-29 -161 0
-30 -162 0
-31 -163 0
-32 -164 0
-33 -165 0
-34 -166 0
-35 -167 0
-36 -168 0
-25 -181 0
-26 -182 0
-27 -183 0
-28 -184 0
-29 -185 0
-30 -186 0
-31 -187 0
-32 -188 0
-33 -189 0
-34 -190 0
-35 -191 0
-36 -192 0
-37 -49 0
-38 -50 0
-39 -51 0
-40 -52 0
-41 -53 0
-42 -54 0
-43 -55 0
-44 -56 0
-45 -57 0
-46 -58 0
-47 -59 0
-48 -60 0
-37 -61 0
-38 -62 0
-39 -63 0
-40 -64 0
-41 -65 0
-42 -66 0
-43 -67 0
-44 -68 0
-45 -69 0
-46 -70 0
-47 -71 0
-48 -72 0
-37 -73 0
-38 -74 0
-39 -75 0
-40 -76 0
-41 -77 0
-42 -78 0
-43 -79 0
-44 -80 0
-45 -81 0
-46 -82 0
-47 -83 0
-48 -84 0
-37 -85 0
-38 -86 0
-39 -87 0
-40 -88 0
-41 -89 0
-42 -90 0
-43 -91 0
-44 -92 0
-45 -93 0
-46 -94 0
-47 -95 0
-48 -96 0
-37 -109 0
-38 -110 0
-39 -111 0
-40 -112 0
-41 -113 0
-42 -114 0
-43 -115 0
-44 -116 0
-45 -117 0
-46 -118 0
-47 -119 0
-48 -120 0
-37 -121 0
-38 -122 0
-39 -123 0
-40 -124 0
-41 -125 0
-42 -126 0
-43 -127 0
-44 -128 0
-45 -129 0
-46 -130 0
-47 -131 0
-48 -132 0
-37 -133 0
-38 -134 0
-39 -135 0
-40 -136 0
-41 -137 0
-42 -138 0
-43 -139 0
-44 -140 0
-45 -141 0
-46 -142 0
-47 -143 0
-48 -144 0
-37 -145 0
-38 -146 0
-39 -147 0
-40 -148 0
-41 -149 0
-42 -150 0
-43 -151 0
-44 -152 0
-45 -153 0
-46 -154 0
-47 -155 0
-48 -156 0
-37 -169 0
-38 -170 0
-39 -171 0
-40 -172 0
-41 -173 0
-42 -174 0
-43 -175 0
-44 -176 0
-45 -177 0
-46 -178 0
-47 -179 0
-48 -180 0
-37 -181 0
-38 -182 0
-39 -183 0
-40 -184 0
-41 -185 0
-42 -186 0
-43 -187 0
-44 -188 0
-45 -189 0
-46 -190 0
-47 -191 0
-48 -192 0
-37 -193 0
-38 -194 0
-39 -195 0
-40 -196 0
-41 -197 0
-42 -198 0
-43 -199 0
-44 -200 0
-45 -201 0
-46 -202 0
-47 -203 0
-48 -204 0
-49 -73 0
-50 -74 0
-51 -75 0
-52 -76 0
-53 -77 0
-54 -78 0
-55 -79 0
-56 -80 0
-57 -81 0
-58 -82 0
-59 -83 0
-60 -84 0
-49 -85 0
-50 -86 0
-51 -87 0
-52 -88 0
-53 -89 0
-54 -90 0
-55 -91 0
-56 -92 0
-57 -93 0
-58 -94 0
-59 -95 0
-60 -96 0
-49 -97 0
-50 -98 0
-51 -99 0
-52 -100 0
-53 -101 0
-54 -102 0
-55 -103 0
-56 -104 0
-57 -105 0
-58 -106 0
-59 -107 0
-60 -108 0
-49 -109 0
-50 -110 0
-51 -111 0
-52 -112 0
-53 -113 0
-54 -114 0
-55 -115 0
-56 -116 0
-57 -117 0
-58 -118 0
-59 -119 0
-60 -120 0
-49 -145 0
-50 -146 0
-51 -147 0
-52 -148 0
-53 -149 0
-54 -150 0
-55 -151 0
-56 -152 0
-57 -153 0
-58 -154 0
-59 -155 0
-60 -156 0
-49 -157 0
-50 -158 0
-51 -159 0
-52 -160 0
-53 -161 0
-54 -162 0
-55 -163 0
-56 -164 0
-57 -165 0
-58 -166 0
-59 -167 0
-60 -168 0
-49 -169 0
-50 -170 0
-51 -171 0
-52 -172 0
-53 -173 0
-54 -174 0
-55 -175 0
-56 -176 0
-57 -177 0
-58 -178 0
-59 -179 0
-60 -180 0
-49 -193 0
-50 -194 0
-51 -195 0
-52 -196 0
-53 -197 0
-54 -198 0
-55 -199 0
-56 -200 0
-57 -201 0
-58 -202 0
-59 -203 0
-60 -204 0
-61 -109 0
-62 -110 0
-63 -111 0
-64 -112 0
-65 -113 0
-66 -114 0
-67 -115 0
-68 -116 0
-69 -117 0
-70 -118 0
-71 -119 0
-72 -120 0
-61 -145 0
-62 -146 0
-63 -147 0
-64 -148 0
-65 -149 0
-66 -150 0
-67 -151 0
-68 -152 0
-69 -153 0
-70 -154 0
-71 -155 0
-72 -156 0
-61 -169 0
-62 -170 0
-63 -171 0
-64 -172 0
-65 -173 0
-66 -174 0
-67 -175 0
-68 -176 0
-69 -177 0
-70 -178 0
-71 -179 0
-72 -180 0
-61 -193 0
-62 -194 0
-63 -195 0
-64 -196 0
-65 -197 0
-66 -198 0
-67 -199 0
-68 -200 0
-69 -201 0
-70 -202 0
-71 -203 0
-72 -204 0
-73 -97 0
-74 -98 0
-75 -99 0
-76 -100 0
-77 -101 0
-78 -102 0
-79 -103 0
-80 -104 0
-81 -105 0
-82 -106 0
-83 -107 0
-84 -108 0
-73 -109 0
-74 -110 0
-75 -111 0
-76 -112 0
-77 -113 0
-78 -114 0
-79 -115 0
-80 -116 0
-81 -117 0
-82 -118 0
-83 -119 0
-84 -120 0
-73 -145 0
-74 -146 0
-75 -147 0
-76 -148 0
-77 -149 0
-78 -150 0
-79 -151 0
-80 -152 0
-81 -153 0
-82 -154 0
-83 -155 0
-84 -156 0
-73 -181 0
-74 -182 0
-75 -183 0
-76 -184 0
-77 -185 0
-78 -186 0
-79 -187 0
-80 -188 0
-81 -189 0
-82 -190 0
-83 -191 0
-84 -192 0
-85 -97 0
-86 -98 0
-87 -99 0
-88 -100 0
-89 -101 0
-90 -102 0
-91 -103 0
-92 -104 0
-93 -105 0
-94 -106 0
-95 -107 0
-96 -108 0
-85 -109 0
-86 -110 0
-87 -111 0
-88 -112 0
-89 -113 0
-90 -114 0
-91 -115 0
-92 -116 0
-93 -117 0
-94 -118 0
-95 -119 0
-96 -120 0
-85 -133 0
-86 -134 0
-87 -135 0
-88 -136 0
-89 -137 0
-90 -138 0
-91 -139 0
-92 -140 0
-93 -141 0
-94 -142 0
-95 -143 0
-96 -144 0
-85 -157 0
-86 -158 0
-87 -159 0
-88 -160 0
-89 -161 0
-90 -162 0
-91 -163 0
-92 -164 0
-93 -165 0
-94 -166 0
-95 -167 0
-96 -168 0
-85 -169 0
-86 -170 0
-87 -171 0
-88 -172 0
-89 -173 0
-90 -174 0
-91 -175 0
-92 -176 0
-93 -177 0
-94 -178 0
-95 -179 0
-96 -180 0
-85 -181 0
-86 -182 0
-87 -183 0
-88 -184 0
-89 -185 0
-90 -186 0
-91 -187 0
-92 -188 0
-93 -189 0
-94 -190 0
-95 -191 0
-96 -192 0
-85 -193 0
-86 -194 0
-87 -195 0
-88 -196 0
-89 -197 0
-90 -198 0
-91 -199 0
-92 -200 0
-93 -201 0
-94 -202 0
-95 -203 0
-96 -204 0
-97 -109 0
-98 -110 0
-99 -111 0
-100 -112 0
-101 -113 0
-102 -114 0
-103 -115 0
-104 -116 0
-105 -117 0
-106 -118 0
-107 -119 0
-108 -120 0
-97 -133 0
-98 -134 0
-99 -135 0
-100 -136 0
-101 -137 0
-102 -138 0
-103 -139 0
-104 -140 0
-105 -141 0
-106 -142 0
-107 -143 0
-108 -144 0
-97 -145 0
-98 -146 0
-99 -147 0
-100 -148 0
-101 -149 0
-102 -150 0
-103 -151 0
-104 -152 0
-105 -153 0
-106 -154 0
-107 -155 0
-108 -156 0
-97 -181 0
-98 -182 0
-99 -183 0
-100 -184 0
-101 -185 0
-102 -186 0
-103 -187 0
-104 -188 0
-105 -189 0
-106 -190 0
-107 -191 0
-108 -192 0
-97 -193 0
-98 -194 0
-99 -195 0
-100 -196 0
-101 -197 0
-102 -198 0
-103 -199 0
-104 -200 0
-105 -201 0
-106 -202 0
-107 -203 0
-108 -204 0
-109 -121 0
-110 -122 0
-111 -123 0
-112 -124 0
-113 -125 0
-114 -126 0
-115 -127 0
-116 -128 0
-117 -129 0
-118 -130 0
-119 -131 0
-120 -132 0
-109 -133 0
-110 -134 0
-111 -135 0
-112 -136 0
-113 -137 0
-114 -138 0
-115 -139 0
-116 -140 0
-117 -141 0
-118 -142 0
-119 -143 0
-120 -144 0
-109 -169 0
-110 -170 0
-111 -171 0
-112 -172 0
-113 -173 0
-114 -174 0
-115 -175 0
-116 -176 0
-117 -177 0
-118 -178 0
-119 -179 0
-120 -180 0
-109 -181 0
-110 -182 0
-111 -183 0
-112 -184 0
-113 -185 0
-114 -186 0
-115 -187 0
-116 -188 0
-117 -189 0
-118 -190 0
-119 -191 0
-120 -192 0
-121 -133 0
-122 -134 0
-123 -135 0
-124 -136 0
-125 -137 0
-126 -138 0
-127 -139 0
-128 -140 0
-129 -141 0
-130 -142 0
-131 -143 0
-132 -144 0
-121 -145 0
-122 -146 0
-123 -147 0
-124 -148 0
-125 -149 0
-126 -150 0
-127 -151 0
-128 -152 0
-129 -153 0
-130 -154 0
-131 -155 0
-132 -156 0
-121 -157 0
-122 -158 0
-123 -159 0
-124 -160 0
-125 -161 0
-126 -162 0
-127 -163 0
-128 -164 0
-129 -165 0
-130 -166 0
-131 -167 0
-132 -168 0
-121 -169 0
-122 -170 0
-123 -171 0
-124 -172 0
-125 -173 0
-126 -174 0
-127 -175 0
-128 -176 0
-129 -177 0
-130 -178 0
-131 -179 0
-132 -180 0
-121 -193 0
-122 -194 0
-123 -195 0
-124 -196 0
-125 -197 0
-126 -198 0
-127 -199 0
-128 -200 0
-129 -201 0
-130 -202 0
-131 -203 0
-132 -204 0
-133 -145 0
-134 -146 0
-135 -147 0
-136 -148 0
-137 -149 0
-138 -150 0
-139 -151 0
-140 -152 0
-141 -153 0
-142 -154 0
-143 -155 0
-144 -156 0
-133 -169 0
-134 -170 0
-135 -171 0
-136 -172 0
-137 -173 0
-138 -174 0
-139 -175 0
-140 -176 0
-141 -177 0
-142 -178 0
-143 -179 0
-144 -180 0
-133 -181 0
-134 -182 0
-135 -183 0
-136 -184 0
-137 -185 0
-138 -186 0
-139 -187 0
-140 -188 0
-141 -189 0
-142 -190 0
-143 -191 0
-144 -192 0
-133 -193 0
-134 -194 0
-135 -195 0
-136 -196 0
-137 -197 0
-138 -198 0
-139 -199 0
-140 -200 0
-141 -201 0
-142 -202 0
-143 -203 0
-144 -204 0
-145 -157 0
-146 -158 0
-147 -159 0
-148 -160 0
-149 -161 0
-150 -162 0
-151 -163 0
-152 -164 0
-153 -165 0
-154 -166 0
-155 -167 0
-156 -168 0
-157 -181 0
-158 -182 0
-159 -183 0
-160 -184 0
-161 -185 0
-162 -186 0
-163 -187 0
-164 -188 0
-165 -189 0
-166 -190 0
-167 -191 0
-168 -192 0
-157 -193 0
-158 -194 0
-159 -195 0
-160 -196 0
-161 -197 0
-162 -198 0
-163 -199 0
-164 -200 0
-165 -201 0
-166 -202 0
-167 -203 0
-168 -204 0
-181 -193 0
-182 -194 0
-183 -195 0
-184 -196 0
-185 -197 0
-186 -198 0
-187 -199 0
-188 -200 0
-189 -201 0
-190 -202 0
-191 -203 0
-192 -204 0
